#=======================================================
# FHI-aims file: ./data/arise/calculations/ranking_structure.in
# Created using the Atomic Simulation Environment (ASE)
# Mon Feb  7 11:50:16 2022
#=======================================================
lattice_vector 4.4868800000000002 0.0000000000000000 0.0000000000000000 
lattice_vector 0.0000000000000000 4.4868800000000002 0.0000000000000000 
lattice_vector 0.0000000000000000 0.0000000000000000 4.4868800000000002 
atom 0.6125488576000000 0.6125488576000000 0.6125488576000000 Fe
atom 1.6308911424000001 -0.6125488576000000 2.8559888575999999 Fe
atom -0.6125488576000000 2.8559888575999999 1.6308911424000001 Fe
atom 2.8559888575999999 1.6308911424000001 -0.6125488576000000 Fe
atom 3.7797477120000003 3.7797477120000003 3.7797477120000003 Si
atom -1.5363077119999999 -3.7797477120000003 6.0231877120000004 Si
atom -3.7797477120000003 6.0231877120000004 -1.5363077119999999 Si
atom 6.0231877120000004 -1.5363077119999999 -3.7797477120000003 Si
