#=======================================================
#FHI-aims file: ./data/ARISE/calculations/selected_structure.in
#Created using the Atomic Simulation Environment (ASE)
#=======================================================
lattice_vector 6.9139999999999997 0.0000000000000000 0.0000000000000000 
lattice_vector 0.0000000000000000 7.4759999999792601 0.0000000000000000 
lattice_vector 0.0000000000000000 0.0000000000000000 9.5629999999786399 
atom 0.8967458000000000 4.3076711999880501 3.9019908899912843 C
atom 2.5602542000000001 -4.3076711999880501 8.6834908899806038 C
atom -0.8967458000000000 8.0456711999776793 0.8795091099980354 C
atom 4.3537458000000004 -0.5696711999984196 -3.9019908899912843 C
atom -0.8967458000000000 -4.3076711999880501 -3.9019908899912843 C
atom 4.3537458000000004 4.3076711999880501 0.8795091099980354 C
atom 0.8967458000000000 -0.5696711999984196 8.6834908899806038 C
atom 2.5602542000000001 8.0456711999776793 3.9019908899912843 C
atom 0.8538789999999999 4.7308127999868761 5.2135563399883553 C
atom 2.6031209999999998 -4.7308127999868761 9.9950563399776744 C
atom -0.8538789999999999 8.4688127999765062 -0.4320563399990349 C
atom 4.3108789999999999 -0.9928127999972458 -5.2135563399883553 C
atom -0.8538789999999999 -4.7308127999868761 -5.2135563399883553 C
atom 4.3108789999999999 4.7308127999868761 -0.4320563399990349 C
atom 0.8538789999999999 -0.9928127999972458 9.9950563399776744 C
atom 2.6031209999999998 8.4688127999765062 5.2135563399883553 C
atom 0.0394098000000000 3.3133631999908078 3.4703170699922485 C
atom 3.4175901999999998 -3.3133631999908078 8.2518170699815698 C
atom -0.0394098000000000 7.0513631999804387 1.3111829299970714 C
atom 3.4964097999999999 0.4246367999988220 -3.4703170699922485 C
atom -0.0394098000000000 -3.3133631999908078 -3.4703170699922485 C
atom 3.4964097999999999 3.3133631999908078 1.3111829299970714 C
atom 0.0394098000000000 0.4246367999988220 8.2518170699815698 C
atom 3.4175901999999998 7.0513631999804387 3.4703170699922485 C
atom 1.5017208000000000 4.6911899999869853 3.3087979999926094 H
atom 1.9552791999999999 -4.6911899999869853 8.0902979999819298 H
atom -1.5017208000000000 8.4291899999766162 1.4727019999967106 H
atom 4.9587207999999992 -0.9531899999973557 -3.3087979999926094 H
atom -1.5017208000000000 -4.6911899999869853 -3.3087979999926094 H
atom 4.9587207999999992 4.6911899999869853 1.4727019999967106 H
atom 1.5017208000000000 -0.9531899999973557 8.0902979999819298 H
atom 1.9552791999999999 8.4291899999766162 3.3087979999926094 H
atom 1.4298152000000000 5.4014099999850158 5.5044627999877047 H
atom 2.0271848000000001 -5.4014099999850158 10.2859627999770247 H
atom -1.4298152000000000 9.1394099999746441 -0.7229627999983852 H
atom 4.8868152000000000 -1.6634099999953853 -5.5044627999877047 H
atom -1.4298152000000000 -5.4014099999850158 -5.5044627999877047 H
atom 4.8868152000000000 5.4014099999850158 -0.7229627999983852 H
atom 1.4298152000000000 -1.6634099999953853 10.2859627999770247 H
atom 2.0271848000000001 9.1394099999746441 5.5044627999877047 H
atom 0.0656830000000000 3.0285275999915986 2.5858351999942242 H
atom 3.3913169999999999 -3.0285275999915986 7.3673351999835441 H
atom -0.0656830000000000 6.7665275999812282 2.1956647999950958 H
atom 3.5226829999999993 0.7094723999980318 -2.5858351999942242 H
atom -0.0656830000000000 -3.0285275999915986 -2.5858351999942242 H
atom 3.5226829999999993 3.0285275999915986 2.1956647999950958 H
atom 0.0656830000000000 0.7094723999980318 7.3673351999835441 H
atom 3.3913169999999999 6.7665275999812282 2.5858351999942242 H
